c File: r30
c
c Description: Random graph of size 30 vertices and P(0.5) of edges between any two vertices.
c              Chromatic number: 7
c              Preliminary colouring time: ~75ms
p col 30 -1
e 1 2
e 1 7
e 1 8
e 1 10
e 1 11
e 1 12
e 1 13
e 1 15
e 1 16
e 1 17
e 1 19
e 1 21
e 1 23
e 1 25
e 1 26
e 1 28
e 2 3
e 2 5
e 2 8
e 2 9
e 2 11
e 2 12
e 2 20
e 2 23
e 2 26
e 2 27
e 2 28
e 2 30
e 3 5
e 3 6
e 3 8
e 3 9
e 3 12
e 3 15
e 3 16
e 3 17
e 3 19
e 3 20
e 3 21
e 3 24
e 3 25
e 3 29
e 3 30
e 4 6
e 4 7
e 4 8
e 4 12
e 4 13
e 4 16
e 4 17
e 4 24
e 4 27
e 4 28
e 5 6
e 5 7
e 5 8
e 5 9
e 5 10
e 5 11
e 5 13
e 5 15
e 5 16
e 5 18
e 5 19
e 5 20
e 5 21
e 5 23
e 5 24
e 5 29
e 6 8
e 6 16
e 6 21
e 6 25
e 6 27
e 7 10
e 7 11
e 7 13
e 7 14
e 7 16
e 7 17
e 7 19
e 7 20
e 7 22
e 7 23
e 7 25
e 7 28
e 7 29
e 8 12
e 8 14
e 8 17
e 8 18
e 8 20
e 8 24
e 8 25
e 8 26
e 8 28
e 8 30
e 9 10
e 9 16
e 9 20
e 9 21
e 9 22
e 9 23
e 9 28
e 9 30
e 10 11
e 10 12
e 10 13
e 10 14
e 10 15
e 10 16
e 10 24
e 11 13
e 11 15
e 11 16
e 11 17
e 11 20
e 11 21
e 11 24
e 11 25
e 11 26
e 11 28
e 11 30
e 12 14
e 12 15
e 12 17
e 12 18
e 12 19
e 12 20
e 12 21
e 12 23
e 12 24
e 12 26
e 13 17
e 13 20
e 13 21
e 13 23
e 13 25
e 13 26
e 13 29
e 14 20
e 14 21
e 14 25
e 14 27
e 14 29
e 14 30
e 15 16
e 15 18
e 15 19
e 15 20
e 15 22
e 15 23
e 15 24
e 15 25
e 15 26
e 15 27
e 15 29
e 15 30
e 16 17
e 16 18
e 16 19
e 16 20
e 16 23
e 16 24
e 16 27
e 16 28
e 16 30
e 17 18
e 17 19
e 17 29
e 18 19
e 18 22
e 18 23
e 18 24
e 18 28
e 18 30
e 19 23
e 19 25
e 19 26
e 19 28
e 19 29
e 20 21
e 20 22
e 20 25
e 20 27
e 20 28
e 21 24
e 21 25
e 21 26
e 21 29
e 21 30
e 22 23
e 22 24
e 22 26
e 22 28
e 23 24
e 23 26
e 23 27
e 23 28
e 23 29
e 23 30
e 24 25
e 24 28
e 25 26
e 25 27
e 25 30
e 26 27
e 26 28
e 27 28
e 27 29
e 27 30
e 28 29
e 28 30